WARNING: for repeatability, setting FPU to use double precision
============================[ Problem Statistics ]=============================
|                                                                             |
|  Number of variables:           100                                         |
|  Number of clauses:             449                                         |
|  Parse time:                   0.00 s                                       |
|  Simplification time:          0.00 s                                       |
|                                                                             |
============================[ Search Statistics ]==============================
| Conflicts |          ORIGINAL         |          LEARNT          | Progress |
|           |    Vars  Clauses Literals |    Limit  Clauses Lit/Cl |          |
===============================================================================
|       100 |     100      447     1340 |      163      100      8 |  0.010 % |
|       250 |     100      447     1340 |      180      165      7 |  0.010 % |
===============================================================================
restarts              : 3
conflicts             : 391            (96591 /sec)
decisions             : 495            (0.00 % random) (122283 /sec)
propagations          : 9275           (2291255 /sec)
conflict literals     : 2701           (17.78 % deleted)
Memory used           : 13.00 MB
CPU time              : 0.004048 s

SATISFIABLE
